(set-logic ALL)
(set-option :produce-models true)
(define-fun-rec str.toLower ((x String)) String
  (ite (= x "")
      ""
      (let ((Head (str.at x 0)))
        (str.++ 
          (ite (and (<= 65 (str.to_code Head)) 
                     (<= (str.to_code Head) 90))
               (str.from_code (+ (str.to_code Head) 32))
               Head)
          (str.toLower (str.substr x 1 (- (str.len x) 1)))))))
(declare-fun r4 () String)

(assert (not (= (str.toLower (str.substr r4  0 1))"q" )))
(assert (not (= (str.toLower (str.substr r4  0 1))"k" )))
(assert (not (= (str.toLower (str.substr r4  0 1))"q" )))
(assert (not (= (str.toLower (str.substr r4  0 1))"q" )))
(assert (not (= "" r4 )))
(assert (not (= (str.toLower (str.substr r4  0 1))"p" )))
(assert (not (= "" r4 )))
(assert (not (= "" r4 )))
(assert (not (= (str.toLower (str.substr r4  0 1))"p" )))
(assert (= (str.toLower (str.substr r4  0 1))"p" ))
(assert (not (= "" r4 )))
(assert (not (= "" r4 )))
(assert (not (= (str.toLower (str.substr r4  0 1))"q" )))
(assert (= "y" "y" ))
(assert (not (= "" r4 )))
(assert (not (= "" (str.toLower (str.substr r4  0 1)))))
(assert (= (str.toLower (str.substr r4  0 1))"y" ))
(assert (not (= "" r4 )))
(assert (not (= (str.toLower (str.substr r4  0 1))"p" )))
(assert (not (= "" r4 )))
(assert (not (= "" r4 )))
(assert (not (= (str.toLower (str.substr r4  0 1))"q" )))
(assert (not (= "" r4 )))
(assert (not (= "" (str.toLower (str.substr r4  0 1)))))
(assert (not (= (str.toLower (str.substr r4  0 1))"p" )))
(assert (= (str.toLower (str.substr r4  0 1))"k" ))
(assert (not (= "" "y" )))
(assert (= (str.toLower (str.substr r4  0 1))"k" ))
(assert (not (= (str.toLower (str.substr r4  0 1))"y" )))
(assert (not (= (str.toLower (str.substr r4  0 1))"k" )))
(assert (not (= (str.toLower (str.substr r4  0 1))"q" )))
(assert (= (str.toLower (str.substr r4  0 1))"g" ))
(assert (= (str.toLower (str.substr r4  0 1))"k" ))
(assert (not (= (str.toLower (str.substr r4  0 1))"q" )))
(assert (= (str.toLower (str.substr r4  0 1))"p" ))
(assert (not (= (str.toLower (str.substr r4  0 1))"p" )))
(assert (not (= "" r4 )))
(assert (not (= (str.toLower (str.substr r4  0 1))"p" )))
(assert (= (str.toLower (str.substr r4  0 1))"g" ))
(assert (not (= (str.toLower (str.substr r4  0 1))"q" )))
(assert (not (= (str.toLower (str.substr r4  0 1))"p" )))
(assert (not (= (str.toLower (str.substr r4  0 1))"k" )))
(assert (not (= (str.toLower (str.substr r4  0 1))"p" )))
(assert (not (= "y" "n" )))
(assert (= (str.toLower (str.substr r4  0 1))"p" ))
(assert (not (= (str.toLower (str.substr r4  0 1))"q" )))
(assert (not (= (str.toLower (str.substr r4  0 1))"q" )))
(assert (not (= "" r4 )))
(assert (= "" r4 ))
(assert (not (= "" r4 )))
(assert (= (str.toLower (str.substr r4  0 1))"p" ))
(assert (= (str.toLower (str.substr r4  0 1))"k" ))
(assert (= "" "" ))
(assert (not (= (str.toLower (str.substr r4  0 1))"q" )))
(assert (not (= (str.toLower (str.substr r4  0 1))"k" )))
(assert (not (= "" r4 )))
(assert (not (= "" "q" )))
(assert (= (str.toLower (str.substr r4  0 1))"g" ))
(assert (not (= "n" "y" )))
(assert (not (= "" r4 )))
(assert (not (= (str.toLower (str.substr r4  0 1))"q" )))
(assert (not (= "" "n" )))
(assert (not (= "" "y" )))
(assert (= (str.toLower (str.substr r4  0 1))"g" ))
(assert (= (str.toLower (str.substr r4  0 1))"p" ))
(assert (not (= (str.toLower (str.substr r4  0 1))"q" )))
(check-sat)
(get-model)
(exit)
